181
0 109 83 163 10 66 160 174 72 103 
159 124 86 101 1 79 68 51 176 130 
108 155 16 24 44 32 81 150 59 27 
21 99 111 92 40 23 94 29 6 177 
178 60 47 69 35 73 8 7 145 125 
22 147 143 30 138 12 127 131 38 50 
17 179 110 122 34 129 167 117 39 36 
154 164 97 63 90 139 95 4 58 56 
19 120 55 156 91 106 134 175 41 171 
148 114 13 74 135 37 70 57 162 96 
5 62 20 116 168 161 85 173 89 71 
98 180 49 118 15 153 53 170 87 33 
128 64 137 115 100 14 93 144 42 65 
157 146 52 18 54 102 11 104 67 165 
75 172 140 169 9 3 151 43 25 78 
142 80 121 152 77 113 84 166 88 46 
48 82 112 158 76 119 2 149 105 31 
107 141 126 45 26 61 133 136 123 28 
132 
